c description: Graph pigeonhole principle formula on fast_gnp_random_graph(10,25,0.9)
c generator: CNFgen (0.9.0)
c copyright: (C) 2012-2020 Massimo Lauria <massimo.lauria@uniroma1.it>
c url: https://massimolauria.net/cnfgen
c
p cnf 232 976
1 2 3 4 5 6 7 8 9 10 11 12 13 14 15 16 17 18 19 20 21 22 23 24 0
25 26 27 28 29 30 31 32 33 34 35 36 37 38 39 40 41 42 43 44 45 46 47 0
48 49 50 51 52 53 54 55 56 57 58 59 60 61 62 63 64 65 66 67 68 69 70 0
71 72 73 74 75 76 77 78 79 80 81 82 83 84 85 86 87 88 89 90 91 92 0
93 94 95 96 97 98 99 100 101 102 103 104 105 106 107 108 109 110 111 112 113 114 115 116 117 0
118 119 120 121 122 123 124 125 126 127 128 129 130 131 132 133 134 135 136 137 138 139 140 141 0
142 143 144 145 146 147 148 149 150 151 152 153 154 155 156 157 158 159 160 161 0
162 163 164 165 166 167 168 169 170 171 172 173 174 175 176 177 178 179 180 181 182 183 184 185 186 0
187 188 189 190 191 192 193 194 195 196 197 198 199 200 201 202 203 204 205 206 207 208 0
209 210 211 212 213 214 215 216 217 218 219 220 221 222 223 224 225 226 227 228 229 230 231 232 0
-1 -48 0
-1 -71 0
-1 -93 0
-1 -118 0
-1 -142 0
-1 -162 0
-1 -209 0
-48 -71 0
-48 -93 0
-48 -118 0
-48 -142 0
-48 -162 0
-48 -209 0
-71 -93 0
-71 -118 0
-71 -142 0
-71 -162 0
-71 -209 0
-93 -118 0
-93 -142 0
-93 -162 0
-93 -209 0
-118 -142 0
-118 -162 0
-118 -209 0
-142 -162 0
-142 -209 0
-162 -209 0
-2 -25 0
-2 -49 0
-2 -72 0
-2 -94 0
-2 -119 0
-2 -163 0
-2 -187 0
-2 -210 0
-25 -49 0
-25 -72 0
-25 -94 0
-25 -119 0
-25 -163 0
-25 -187 0
-25 -210 0
-49 -72 0
-49 -94 0
-49 -119 0
-49 -163 0
-49 -187 0
-49 -210 0
-72 -94 0
-72 -119 0
-72 -163 0
-72 -187 0
-72 -210 0
-94 -119 0
-94 -163 0
-94 -187 0
-94 -210 0
-119 -163 0
-119 -187 0
-119 -210 0
-163 -187 0
-163 -210 0
-187 -210 0
-3 -26 0
-3 -50 0
-3 -73 0
-3 -95 0
-3 -120 0
-3 -143 0
-3 -164 0
-3 -188 0
-3 -211 0
-26 -50 0
-26 -73 0
-26 -95 0
-26 -120 0
-26 -143 0
-26 -164 0
-26 -188 0
-26 -211 0
-50 -73 0
-50 -95 0
-50 -120 0
-50 -143 0
-50 -164 0
-50 -188 0
-50 -211 0
-73 -95 0
-73 -120 0
-73 -143 0
-73 -164 0
-73 -188 0
-73 -211 0
-95 -120 0
-95 -143 0
-95 -164 0
-95 -188 0
-95 -211 0
-120 -143 0
-120 -164 0
-120 -188 0
-120 -211 0
-143 -164 0
-143 -188 0
-143 -211 0
-164 -188 0
-164 -211 0
-188 -211 0
-4 -27 0
-4 -51 0
-4 -74 0
-4 -96 0
-4 -121 0
-4 -144 0
-4 -165 0
-4 -212 0
-27 -51 0
-27 -74 0
-27 -96 0
-27 -121 0
-27 -144 0
-27 -165 0
-27 -212 0
-51 -74 0
-51 -96 0
-51 -121 0
-51 -144 0
-51 -165 0
-51 -212 0
-74 -96 0
-74 -121 0
-74 -144 0
-74 -165 0
-74 -212 0
-96 -121 0
-96 -144 0
-96 -165 0
-96 -212 0
-121 -144 0
-121 -165 0
-121 -212 0
-144 -165 0
-144 -212 0
-165 -212 0
-5 -28 0
-5 -52 0
-5 -75 0
-5 -97 0
-5 -122 0
-5 -145 0
-5 -166 0
-5 -189 0
-5 -213 0
-28 -52 0
-28 -75 0
-28 -97 0
-28 -122 0
-28 -145 0
-28 -166 0
-28 -189 0
-28 -213 0
-52 -75 0
-52 -97 0
-52 -122 0
-52 -145 0
-52 -166 0
-52 -189 0
-52 -213 0
-75 -97 0
-75 -122 0
-75 -145 0
-75 -166 0
-75 -189 0
-75 -213 0
-97 -122 0
-97 -145 0
-97 -166 0
-97 -189 0
-97 -213 0
-122 -145 0
-122 -166 0
-122 -189 0
-122 -213 0
-145 -166 0
-145 -189 0
-145 -213 0
-166 -189 0
-166 -213 0
-189 -213 0
-6 -29 0
-6 -53 0
-6 -76 0
-6 -98 0
-6 -123 0
-6 -146 0
-6 -167 0
-6 -190 0
-6 -214 0
-29 -53 0
-29 -76 0
-29 -98 0
-29 -123 0
-29 -146 0
-29 -167 0
-29 -190 0
-29 -214 0
-53 -76 0
-53 -98 0
-53 -123 0
-53 -146 0
-53 -167 0
-53 -190 0
-53 -214 0
-76 -98 0
-76 -123 0
-76 -146 0
-76 -167 0
-76 -190 0
-76 -214 0
-98 -123 0
-98 -146 0
-98 -167 0
-98 -190 0
-98 -214 0
-123 -146 0
-123 -167 0
-123 -190 0
-123 -214 0
-146 -167 0
-146 -190 0
-146 -214 0
-167 -190 0
-167 -214 0
-190 -214 0
-7 -30 0
-7 -54 0
-7 -99 0
-7 -124 0
-7 -168 0
-7 -191 0
-7 -215 0
-30 -54 0
-30 -99 0
-30 -124 0
-30 -168 0
-30 -191 0
-30 -215 0
-54 -99 0
-54 -124 0
-54 -168 0
-54 -191 0
-54 -215 0
-99 -124 0
-99 -168 0
-99 -191 0
-99 -215 0
-124 -168 0
-124 -191 0
-124 -215 0
-168 -191 0
-168 -215 0
-191 -215 0
-8 -31 0
-8 -55 0
-8 -77 0
-8 -100 0
-8 -125 0
-8 -147 0
-8 -169 0
-8 -192 0
-8 -216 0
-31 -55 0
-31 -77 0
-31 -100 0
-31 -125 0
-31 -147 0
-31 -169 0
-31 -192 0
-31 -216 0
-55 -77 0
-55 -100 0
-55 -125 0
-55 -147 0
-55 -169 0
-55 -192 0
-55 -216 0
-77 -100 0
-77 -125 0
-77 -147 0
-77 -169 0
-77 -192 0
-77 -216 0
-100 -125 0
-100 -147 0
-100 -169 0
-100 -192 0
-100 -216 0
-125 -147 0
-125 -169 0
-125 -192 0
-125 -216 0
-147 -169 0
-147 -192 0
-147 -216 0
-169 -192 0
-169 -216 0
-192 -216 0
-9 -32 0
-9 -56 0
-9 -78 0
-9 -101 0
-9 -126 0
-9 -148 0
-9 -170 0
-9 -193 0
-9 -217 0
-32 -56 0
-32 -78 0
-32 -101 0
-32 -126 0
-32 -148 0
-32 -170 0
-32 -193 0
-32 -217 0
-56 -78 0
-56 -101 0
-56 -126 0
-56 -148 0
-56 -170 0
-56 -193 0
-56 -217 0
-78 -101 0
-78 -126 0
-78 -148 0
-78 -170 0
-78 -193 0
-78 -217 0
-101 -126 0
-101 -148 0
-101 -170 0
-101 -193 0
-101 -217 0
-126 -148 0
-126 -170 0
-126 -193 0
-126 -217 0
-148 -170 0
-148 -193 0
-148 -217 0
-170 -193 0
-170 -217 0
-193 -217 0
-10 -33 0
-10 -79 0
-10 -102 0
-10 -127 0
-10 -149 0
-10 -171 0
-10 -194 0
-10 -218 0
-33 -79 0
-33 -102 0
-33 -127 0
-33 -149 0
-33 -171 0
-33 -194 0
-33 -218 0
-79 -102 0
-79 -127 0
-79 -149 0
-79 -171 0
-79 -194 0
-79 -218 0
-102 -127 0
-102 -149 0
-102 -171 0
-102 -194 0
-102 -218 0
-127 -149 0
-127 -171 0
-127 -194 0
-127 -218 0
-149 -171 0
-149 -194 0
-149 -218 0
-171 -194 0
-171 -218 0
-194 -218 0
-11 -57 0
-11 -80 0
-11 -103 0
-11 -128 0
-11 -150 0
-11 -172 0
-11 -195 0
-11 -219 0
-57 -80 0
-57 -103 0
-57 -128 0
-57 -150 0
-57 -172 0
-57 -195 0
-57 -219 0
-80 -103 0
-80 -128 0
-80 -150 0
-80 -172 0
-80 -195 0
-80 -219 0
-103 -128 0
-103 -150 0
-103 -172 0
-103 -195 0
-103 -219 0
-128 -150 0
-128 -172 0
-128 -195 0
-128 -219 0
-150 -172 0
-150 -195 0
-150 -219 0
-172 -195 0
-172 -219 0
-195 -219 0
-12 -34 0
-12 -58 0
-12 -81 0
-12 -104 0
-12 -129 0
-12 -151 0
-12 -173 0
-12 -220 0
-34 -58 0
-34 -81 0
-34 -104 0
-34 -129 0
-34 -151 0
-34 -173 0
-34 -220 0
-58 -81 0
-58 -104 0
-58 -129 0
-58 -151 0
-58 -173 0
-58 -220 0
-81 -104 0
-81 -129 0
-81 -151 0
-81 -173 0
-81 -220 0
-104 -129 0
-104 -151 0
-104 -173 0
-104 -220 0
-129 -151 0
-129 -173 0
-129 -220 0
-151 -173 0
-151 -220 0
-173 -220 0
-13 -35 0
-13 -59 0
-13 -82 0
-13 -105 0
-13 -130 0
-13 -152 0
-13 -174 0
-13 -196 0
-13 -221 0
-35 -59 0
-35 -82 0
-35 -105 0
-35 -130 0
-35 -152 0
-35 -174 0
-35 -196 0
-35 -221 0
-59 -82 0
-59 -105 0
-59 -130 0
-59 -152 0
-59 -174 0
-59 -196 0
-59 -221 0
-82 -105 0
-82 -130 0
-82 -152 0
-82 -174 0
-82 -196 0
-82 -221 0
-105 -130 0
-105 -152 0
-105 -174 0
-105 -196 0
-105 -221 0
-130 -152 0
-130 -174 0
-130 -196 0
-130 -221 0
-152 -174 0
-152 -196 0
-152 -221 0
-174 -196 0
-174 -221 0
-196 -221 0
-14 -36 0
-14 -60 0
-14 -83 0
-14 -106 0
-14 -131 0
-14 -153 0
-14 -175 0
-14 -197 0
-14 -222 0
-36 -60 0
-36 -83 0
-36 -106 0
-36 -131 0
-36 -153 0
-36 -175 0
-36 -197 0
-36 -222 0
-60 -83 0
-60 -106 0
-60 -131 0
-60 -153 0
-60 -175 0
-60 -197 0
-60 -222 0
-83 -106 0
-83 -131 0
-83 -153 0
-83 -175 0
-83 -197 0
-83 -222 0
-106 -131 0
-106 -153 0
-106 -175 0
-106 -197 0
-106 -222 0
-131 -153 0
-131 -175 0
-131 -197 0
-131 -222 0
-153 -175 0
-153 -197 0
-153 -222 0
-175 -197 0
-175 -222 0
-197 -222 0
-37 -61 0
-37 -84 0
-37 -107 0
-37 -132 0
-37 -154 0
-37 -176 0
-37 -198 0
-37 -223 0
-61 -84 0
-61 -107 0
-61 -132 0
-61 -154 0
-61 -176 0
-61 -198 0
-61 -223 0
-84 -107 0
-84 -132 0
-84 -154 0
-84 -176 0
-84 -198 0
-84 -223 0
-107 -132 0
-107 -154 0
-107 -176 0
-107 -198 0
-107 -223 0
-132 -154 0
-132 -176 0
-132 -198 0
-132 -223 0
-154 -176 0
-154 -198 0
-154 -223 0
-176 -198 0
-176 -223 0
-198 -223 0
-15 -38 0
-15 -62 0
-15 -85 0
-15 -108 0
-15 -133 0
-15 -155 0
-15 -177 0
-15 -199 0
-15 -224 0
-38 -62 0
-38 -85 0
-38 -108 0
-38 -133 0
-38 -155 0
-38 -177 0
-38 -199 0
-38 -224 0
-62 -85 0
-62 -108 0
-62 -133 0
-62 -155 0
-62 -177 0
-62 -199 0
-62 -224 0
-85 -108 0
-85 -133 0
-85 -155 0
-85 -177 0
-85 -199 0
-85 -224 0
-108 -133 0
-108 -155 0
-108 -177 0
-108 -199 0
-108 -224 0
-133 -155 0
-133 -177 0
-133 -199 0
-133 -224 0
-155 -177 0
-155 -199 0
-155 -224 0
-177 -199 0
-177 -224 0
-199 -224 0
-16 -39 0
-16 -63 0
-16 -86 0
-16 -109 0
-16 -134 0
-16 -156 0
-16 -178 0
-16 -200 0
-16 -225 0
-39 -63 0
-39 -86 0
-39 -109 0
-39 -134 0
-39 -156 0
-39 -178 0
-39 -200 0
-39 -225 0
-63 -86 0
-63 -109 0
-63 -134 0
-63 -156 0
-63 -178 0
-63 -200 0
-63 -225 0
-86 -109 0
-86 -134 0
-86 -156 0
-86 -178 0
-86 -200 0
-86 -225 0
-109 -134 0
-109 -156 0
-109 -178 0
-109 -200 0
-109 -225 0
-134 -156 0
-134 -178 0
-134 -200 0
-134 -225 0
-156 -178 0
-156 -200 0
-156 -225 0
-178 -200 0
-178 -225 0
-200 -225 0
-17 -40 0
-17 -64 0
-17 -87 0
-17 -110 0
-17 -157 0
-17 -179 0
-17 -201 0
-17 -226 0
-40 -64 0
-40 -87 0
-40 -110 0
-40 -157 0
-40 -179 0
-40 -201 0
-40 -226 0
-64 -87 0
-64 -110 0
-64 -157 0
-64 -179 0
-64 -201 0
-64 -226 0
-87 -110 0
-87 -157 0
-87 -179 0
-87 -201 0
-87 -226 0
-110 -157 0
-110 -179 0
-110 -201 0
-110 -226 0
-157 -179 0
-157 -201 0
-157 -226 0
-179 -201 0
-179 -226 0
-201 -226 0
-18 -41 0
-18 -65 0
-18 -88 0
-18 -111 0
-18 -135 0
-18 -158 0
-18 -180 0
-18 -202 0
-18 -227 0
-41 -65 0
-41 -88 0
-41 -111 0
-41 -135 0
-41 -158 0
-41 -180 0
-41 -202 0
-41 -227 0
-65 -88 0
-65 -111 0
-65 -135 0
-65 -158 0
-65 -180 0
-65 -202 0
-65 -227 0
-88 -111 0
-88 -135 0
-88 -158 0
-88 -180 0
-88 -202 0
-88 -227 0
-111 -135 0
-111 -158 0
-111 -180 0
-111 -202 0
-111 -227 0
-135 -158 0
-135 -180 0
-135 -202 0
-135 -227 0
-158 -180 0
-158 -202 0
-158 -227 0
-180 -202 0
-180 -227 0
-202 -227 0
-19 -42 0
-19 -89 0
-19 -112 0
-19 -136 0
-19 -159 0
-19 -181 0
-19 -203 0
-19 -228 0
-42 -89 0
-42 -112 0
-42 -136 0
-42 -159 0
-42 -181 0
-42 -203 0
-42 -228 0
-89 -112 0
-89 -136 0
-89 -159 0
-89 -181 0
-89 -203 0
-89 -228 0
-112 -136 0
-112 -159 0
-112 -181 0
-112 -203 0
-112 -228 0
-136 -159 0
-136 -181 0
-136 -203 0
-136 -228 0
-159 -181 0
-159 -203 0
-159 -228 0
-181 -203 0
-181 -228 0
-203 -228 0
-20 -43 0
-20 -66 0
-20 -113 0
-20 -137 0
-20 -160 0
-20 -182 0
-20 -204 0
-20 -229 0
-43 -66 0
-43 -113 0
-43 -137 0
-43 -160 0
-43 -182 0
-43 -204 0
-43 -229 0
-66 -113 0
-66 -137 0
-66 -160 0
-66 -182 0
-66 -204 0
-66 -229 0
-113 -137 0
-113 -160 0
-113 -182 0
-113 -204 0
-113 -229 0
-137 -160 0
-137 -182 0
-137 -204 0
-137 -229 0
-160 -182 0
-160 -204 0
-160 -229 0
-182 -204 0
-182 -229 0
-204 -229 0
-21 -44 0
-21 -67 0
-21 -90 0
-21 -114 0
-21 -138 0
-21 -183 0
-21 -205 0
-44 -67 0
-44 -90 0
-44 -114 0
-44 -138 0
-44 -183 0
-44 -205 0
-67 -90 0
-67 -114 0
-67 -138 0
-67 -183 0
-67 -205 0
-90 -114 0
-90 -138 0
-90 -183 0
-90 -205 0
-114 -138 0
-114 -183 0
-114 -205 0
-138 -183 0
-138 -205 0
-183 -205 0
-22 -45 0
-22 -68 0
-22 -115 0
-22 -139 0
-22 -161 0
-22 -184 0
-22 -206 0
-22 -230 0
-45 -68 0
-45 -115 0
-45 -139 0
-45 -161 0
-45 -184 0
-45 -206 0
-45 -230 0
-68 -115 0
-68 -139 0
-68 -161 0
-68 -184 0
-68 -206 0
-68 -230 0
-115 -139 0
-115 -161 0
-115 -184 0
-115 -206 0
-115 -230 0
-139 -161 0
-139 -184 0
-139 -206 0
-139 -230 0
-161 -184 0
-161 -206 0
-161 -230 0
-184 -206 0
-184 -230 0
-206 -230 0
-23 -46 0
-23 -69 0
-23 -91 0
-23 -116 0
-23 -140 0
-23 -185 0
-23 -207 0
-23 -231 0
-46 -69 0
-46 -91 0
-46 -116 0
-46 -140 0
-46 -185 0
-46 -207 0
-46 -231 0
-69 -91 0
-69 -116 0
-69 -140 0
-69 -185 0
-69 -207 0
-69 -231 0
-91 -116 0
-91 -140 0
-91 -185 0
-91 -207 0
-91 -231 0
-116 -140 0
-116 -185 0
-116 -207 0
-116 -231 0
-140 -185 0
-140 -207 0
-140 -231 0
-185 -207 0
-185 -231 0
-207 -231 0
-24 -47 0
-24 -70 0
-24 -92 0
-24 -117 0
-24 -141 0
-24 -186 0
-24 -208 0
-24 -232 0
-47 -70 0
-47 -92 0
-47 -117 0
-47 -141 0
-47 -186 0
-47 -208 0
-47 -232 0
-70 -92 0
-70 -117 0
-70 -141 0
-70 -186 0
-70 -208 0
-70 -232 0
-92 -117 0
-92 -141 0
-92 -186 0
-92 -208 0
-92 -232 0
-117 -141 0
-117 -186 0
-117 -208 0
-117 -232 0
-141 -186 0
-141 -208 0
-141 -232 0
-186 -208 0
-186 -232 0
-208 -232 0